(declare-fun var0 () String)
(declare-fun var1 () String)
(declare-fun var2 () String)
(declare-fun var3 () String)
(declare-fun var4 () String)
(declare-fun var5 () String)
(declare-fun var6 () String)
(declare-fun var7 () String)
(declare-fun var8 () String)
(declare-fun var9 () String)
(declare-fun var10 () String)
(declare-fun var11 () String)
(declare-fun var12 () String)
(declare-fun var13 () String)
(declare-fun var14 () String)
(declare-fun var15 () String)
(declare-fun var16 () String)
(declare-fun var17 () String)
(declare-fun var18 () String)
(declare-fun var19 () String)
(declare-fun var20 () String)
(declare-fun var21 () String)
(declare-fun var22 () String)
(declare-fun var23 () String)
(declare-fun var24 () String)
(declare-fun var25 () String)
(declare-fun var26 () String)
(declare-fun var27 () String)
(declare-fun var28 () String)
(declare-fun var29 () String)
(declare-fun var30 () String)
(declare-fun var31 () String)
(declare-fun var32 () String)
(declare-fun var33 () String)
(declare-fun var34 () String)
(declare-fun var35 () String)
(declare-fun var36 () String)
(declare-fun var37 () String)
(declare-fun var38 () String)
(declare-fun var39 () String)
(declare-fun var40 () String)
(declare-fun var41 () String)
(declare-fun var42 () String)
(declare-fun var43 () String)
(declare-fun var44 () String)
(declare-fun var45 () String)
(declare-fun var46 () String)
(declare-fun var47 () String)
(declare-fun var48 () String)
(declare-fun var49 () String)
(declare-fun var50 () String)
(declare-fun var51 () String)
(declare-fun var52 () String)
(declare-fun var53 () String)
(declare-fun var54 () String)
(declare-fun var55 () String)
(declare-fun var56 () String)
(declare-fun var57 () String)
(declare-fun var58 () String)
(declare-fun var59 () String)
(declare-fun var60 () String)
(assert (= var0 (Concat var1 var2)))
(assert (= var2 (Concat var3 var4)))
(assert (= var4 (Concat var5 var6)))
(assert (= var6 (Concat var7 var8)))
(assert (= var8 (Concat var9 var10)))
(assert (= var10 (Concat var11 var12)))
(assert (= var12 (Concat var13 var14)))
(assert (= var14 (Concat var15 var16)))
(assert (= var16 (Concat var17 var18)))
(assert (= var18 (Concat var19 var20)))
(assert (= var20 (Concat var21 var22)))
(assert (= var22 (Concat var23 var24)))
(assert (= var24 (Concat var25 var26)))
(assert (= var26 (Concat var27 var28)))
(assert (= var28 (Concat var29 var30)))
(assert (= var30 (Concat var31 var32)))
(assert (= var32 (Concat var33 var34)))
(assert (= var34 (Concat var35 var36)))
(assert (= var36 (Concat var37 var38)))
(assert (= var38 (Concat var39 var40)))
(assert (= var40 (Concat var41 var42)))
(assert (= var42 (Concat var43 var44)))
(assert (= var44 (Concat var45 var46)))
(assert (= var46 (Concat var47 var48)))
(assert (= var48 (Concat var49 var50)))
(assert (= var50 (Concat var51 var52)))
(assert (= var52 (Concat var53 var54)))
(assert (= var54 (Concat var55 var56)))
(assert (= var56 (Concat var57 var58)))
(assert (= var58 (Concat var59 var60)))
(assert (= var0 "solution"))
(assert (= "C" (CharAt var8 425)))
(assert (= "e" (CharAt var42 262)))
(assert (= "g" (CharAt var26 893)))
(assert (= "<" (CharAt var4 982)))
(assert (= "`" (CharAt var53 864)))
(assert (= "Z" (CharAt var26 711)))
(assert (= "#" (CharAt var19 680)))
(assert (= "F" (CharAt var42 212)))
(assert (= "7" (CharAt var47 354)))
(assert (= "#" (CharAt var29 143)))
(assert (= "y" (CharAt var11 670)))
(assert (= "<" (CharAt var27 915)))
(assert (= "\"" (CharAt var52 949)))
(assert (= "b" (CharAt var33 74)))
(assert (= "=" (CharAt var6 927)))
(assert (= ":" (CharAt var39 83)))
(assert (= "6" (CharAt var4 539)))
(assert (= "~" (CharAt var12 832)))
(assert (= "8" (CharAt var23 922)))
(assert (= "7" (CharAt var1 430)))
(assert (= "W" (CharAt var57 27)))
(assert (= "O" (CharAt var53 486)))
(assert (= "_" (CharAt var56 769)))
(assert (= "A" (CharAt var29 922)))
(assert (= "3" (CharAt var27 184)))
(assert (= "@" (CharAt var1 30)))
(assert (= "I" (CharAt var20 398)))
(assert (= "9" (CharAt var31 753)))
(assert (= "5" (CharAt var34 464)))
(assert (= "Z" (CharAt var26 440)))
(assert (= "q" (CharAt var57 747)))
(assert (= "1" (CharAt var4 324)))
(assert (= "E" (CharAt var30 800)))
(assert (= "Q" (CharAt var57 283)))
(assert (= "b" (CharAt var25 989)))
(assert (= "t" (CharAt var10 759)))
(assert (= "S" (CharAt var17 879)))
(assert (= "G" (CharAt var8 819)))
(assert (= "g" (CharAt var15 870)))
(assert (= "(" (CharAt var17 27)))
(assert (= "P" (CharAt var57 752)))
(assert (= "M" (CharAt var6 552)))
(assert (= "/" (CharAt var32 268)))
(assert (= "S" (CharAt var41 174)))
(assert (= "r" (CharAt var24 45)))
(assert (= "I" (CharAt var19 359)))
(assert (= "k" (CharAt var59 478)))
(assert (= ";" (CharAt var6 49)))
(assert (= "f" (CharAt var8 285)))
(assert (= "W" (CharAt var28 604)))
(assert (= "O" (CharAt var46 996)))
(assert (= "D" (CharAt var8 836)))
(assert (= "^" (CharAt var2 599)))
(assert (= "Q" (CharAt var36 529)))
(assert (= "=" (CharAt var8 498)))
(assert (= "z" (CharAt var5 796)))
(assert (= "@" (CharAt var34 203)))
(assert (= "." (CharAt var60 978)))
(assert (= "Q" (CharAt var8 409)))
(assert (= "8" (CharAt var7 942)))
(assert (= "]" (CharAt var40 922)))
(assert (= "Y" (CharAt var57 641)))
(assert (= "j" (CharAt var23 162)))
(assert (= "5" (CharAt var31 440)))
(assert (= "^" (CharAt var16 679)))
(assert (= "Q" (CharAt var12 663)))
(assert (= "2" (CharAt var16 919)))
(assert (= "9" (CharAt var32 915)))
(assert (= "t" (CharAt var25 129)))
(assert (= "o" (CharAt var8 443)))
(assert (= "t" (CharAt var12 304)))
(assert (= "{" (CharAt var8 355)))
(assert (= "j" (CharAt var33 120)))
(assert (= ";" (CharAt var56 983)))
(assert (= "G" (CharAt var18 257)))
(assert (= "f" (CharAt var50 318)))
(assert (= "k" (CharAt var17 436)))
(assert (= "x" (CharAt var47 978)))
(assert (= "u" (CharAt var29 918)))
(assert (= "*" (CharAt var9 642)))
(assert (= "w" (CharAt var32 127)))
(assert (= "R" (CharAt var24 722)))
(assert (= "M" (CharAt var28 883)))
(assert (= "}" (CharAt var38 525)))
(assert (= "#" (CharAt var31 649)))
(assert (= "/" (CharAt var45 746)))
(assert (= "I" (CharAt var33 527)))
(assert (= "y" (CharAt var15 174)))
(assert (= "l" (CharAt var22 57)))
(assert (= "j" (CharAt var7 737)))
(assert (= "l" (CharAt var37 945)))
(assert (= "|" (CharAt var48 25)))
(assert (= "/" (CharAt var2 288)))
(assert (= "L" (CharAt var31 525)))
(assert (= "[" (CharAt var36 486)))
(assert (= "7" (CharAt var28 568)))
(assert (= ";" (CharAt var10 471)))
(assert (= "x" (CharAt var33 954)))
(assert (= "R" (CharAt var4 378)))
(assert (= "t" (CharAt var11 745)))
(assert (= "V" (CharAt var5 543)))
(assert (= "8" (CharAt var17 942)))
(assert (= ">" (CharAt var58 819)))
(assert (= "O" (CharAt var48 769)))
(assert (= "$" (CharAt var10 940)))
(assert (= "2" (CharAt var33 506)))
(assert (= "0" (CharAt var25 729)))
(assert (= "U" (CharAt var23 667)))
(assert (= ";" (CharAt var51 468)))
(assert (= "*" (CharAt var44 309)))
(assert (= ")" (CharAt var57 53)))
(assert (= "y" (CharAt var12 72)))
(assert (= "t" (CharAt var51 869)))
(assert (= "<" (CharAt var26 950)))
(assert (= "%" (CharAt var3 639)))
(assert (= "E" (CharAt var15 376)))
(assert (= "W" (CharAt var44 569)))
(assert (= "u" (CharAt var30 158)))
(assert (= "i" (CharAt var6 540)))
(assert (= "8" (CharAt var46 826)))
(assert (= "8" (CharAt var40 284)))
(check-sat)